p cnf 200 2570
-197 -193 0
-198 -194 0
-199 -195 0
-200 -196 0
-197 -169 0
-198 -170 0
-199 -171 0
-200 -172 0
-197 -161 0
-198 -162 0
-199 -163 0
-200 -164 0
-197 -153 0
-198 -154 0
-199 -155 0
-200 -156 0
-197 -145 0
-198 -146 0
-199 -147 0
-200 -148 0
-197 -129 0
-198 -130 0
-199 -131 0
-200 -132 0
-197 -125 0
-198 -126 0
-199 -127 0
-200 -128 0
-197 -101 0
-198 -102 0
-199 -103 0
-200 -104 0
-197 -93 0
-198 -94 0
-199 -95 0
-200 -96 0
-197 -89 0
-198 -90 0
-199 -91 0
-200 -92 0
-197 -81 0
-198 -82 0
-199 -83 0
-200 -84 0
-197 -69 0
-198 -70 0
-199 -71 0
-200 -72 0
-197 -65 0
-198 -66 0
-199 -67 0
-200 -68 0
-197 -61 0
-198 -62 0
-199 -63 0
-200 -64 0
-197 -53 0
-198 -54 0
-199 -55 0
-200 -56 0
-197 -45 0
-198 -46 0
-199 -47 0
-200 -48 0
-197 -33 0
-198 -34 0
-199 -35 0
-200 -36 0
-197 -9 0
-198 -10 0
-199 -11 0
-200 -12 0
-193 -189 0
-194 -190 0
-195 -191 0
-196 -192 0
-193 -185 0
-194 -186 0
-195 -187 0
-196 -188 0
-193 -181 0
-194 -182 0
-195 -183 0
-196 -184 0
-193 -177 0
-194 -178 0
-195 -179 0
-196 -180 0
-193 -165 0
-194 -166 0
-195 -167 0
-196 -168 0
-193 -145 0
-194 -146 0
-195 -147 0
-196 -148 0
-193 -141 0
-194 -142 0
-195 -143 0
-196 -144 0
-193 -133 0
-194 -134 0
-195 -135 0
-196 -136 0
-193 -129 0
-194 -130 0
-195 -131 0
-196 -132 0
-193 -121 0
-194 -122 0
-195 -123 0
-196 -124 0
-193 -117 0
-194 -118 0
-195 -119 0
-196 -120 0
-193 -105 0
-194 -106 0
-195 -107 0
-196 -108 0
-193 -93 0
-194 -94 0
-195 -95 0
-196 -96 0
-193 -81 0
-194 -82 0
-195 -83 0
-196 -84 0
-193 -77 0
-194 -78 0
-195 -79 0
-196 -80 0
-193 -53 0
-194 -54 0
-195 -55 0
-196 -56 0
-193 -45 0
-194 -46 0
-195 -47 0
-196 -48 0
-193 -29 0
-194 -30 0
-195 -31 0
-196 -32 0
-193 -25 0
-194 -26 0
-195 -27 0
-196 -28 0
-193 -21 0
-194 -22 0
-195 -23 0
-196 -24 0
-193 -9 0
-194 -10 0
-195 -11 0
-196 -12 0
-189 -181 0
-190 -182 0
-191 -183 0
-192 -184 0
-189 -177 0
-190 -178 0
-191 -179 0
-192 -180 0
-189 -173 0
-190 -174 0
-191 -175 0
-192 -176 0
-189 -161 0
-190 -162 0
-191 -163 0
-192 -164 0
-189 -157 0
-190 -158 0
-191 -159 0
-192 -160 0
-189 -153 0
-190 -154 0
-191 -155 0
-192 -156 0
-189 -149 0
-190 -150 0
-191 -151 0
-192 -152 0
-189 -141 0
-190 -142 0
-191 -143 0
-192 -144 0
-189 -133 0
-190 -134 0
-191 -135 0
-192 -136 0
-189 -129 0
-190 -130 0
-191 -131 0
-192 -132 0
-189 -121 0
-190 -122 0
-191 -123 0
-192 -124 0
-189 -117 0
-190 -118 0
-191 -119 0
-192 -120 0
-189 -113 0
-190 -114 0
-191 -115 0
-192 -116 0
-189 -105 0
-190 -106 0
-191 -107 0
-192 -108 0
-189 -97 0
-190 -98 0
-191 -99 0
-192 -100 0
-189 -77 0
-190 -78 0
-191 -79 0
-192 -80 0
-189 -69 0
-190 -70 0
-191 -71 0
-192 -72 0
-189 -65 0
-190 -66 0
-191 -67 0
-192 -68 0
-189 -61 0
-190 -62 0
-191 -63 0
-192 -64 0
-189 -49 0
-190 -50 0
-191 -51 0
-192 -52 0
-189 -29 0
-190 -30 0
-191 -31 0
-192 -32 0
-189 -25 0
-190 -26 0
-191 -27 0
-192 -28 0
-189 -21 0
-190 -22 0
-191 -23 0
-192 -24 0
-189 -17 0
-190 -18 0
-191 -19 0
-192 -20 0
-189 -13 0
-190 -14 0
-191 -15 0
-192 -16 0
-189 -1 0
-190 -2 0
-191 -3 0
-192 -4 0
-185 -181 0
-186 -182 0
-187 -183 0
-188 -184 0
-185 -177 0
-186 -178 0
-187 -179 0
-188 -180 0
-185 -157 0
-186 -158 0
-187 -159 0
-188 -160 0
-185 -153 0
-186 -154 0
-187 -155 0
-188 -156 0
-185 -137 0
-186 -138 0
-187 -139 0
-188 -140 0
-185 -133 0
-186 -134 0
-187 -135 0
-188 -136 0
-185 -121 0
-186 -122 0
-187 -123 0
-188 -124 0
-185 -117 0
-186 -118 0
-187 -119 0
-188 -120 0
-185 -113 0
-186 -114 0
-187 -115 0
-188 -116 0
-185 -105 0
-186 -106 0
-187 -107 0
-188 -108 0
-185 -77 0
-186 -78 0
-187 -79 0
-188 -80 0
-185 -53 0
-186 -54 0
-187 -55 0
-188 -56 0
-185 -37 0
-186 -38 0
-187 -39 0
-188 -40 0
-185 -29 0
-186 -30 0
-187 -31 0
-188 -32 0
-185 -25 0
-186 -26 0
-187 -27 0
-188 -28 0
-185 -21 0
-186 -22 0
-187 -23 0
-188 -24 0
-185 -9 0
-186 -10 0
-187 -11 0
-188 -12 0
-181 -177 0
-182 -178 0
-183 -179 0
-184 -180 0
-181 -173 0
-182 -174 0
-183 -175 0
-184 -176 0
-181 -161 0
-182 -162 0
-183 -163 0
-184 -164 0
-181 -157 0
-182 -158 0
-183 -159 0
-184 -160 0
-181 -149 0
-182 -150 0
-183 -151 0
-184 -152 0
-181 -145 0
-182 -146 0
-183 -147 0
-184 -148 0
-181 -141 0
-182 -142 0
-183 -143 0
-184 -144 0
-181 -137 0
-182 -138 0
-183 -139 0
-184 -140 0
-181 -133 0
-182 -134 0
-183 -135 0
-184 -136 0
-181 -121 0
-182 -122 0
-183 -123 0
-184 -124 0
-181 -117 0
-182 -118 0
-183 -119 0
-184 -120 0
-181 -113 0
-182 -114 0
-183 -115 0
-184 -116 0
-181 -105 0
-182 -106 0
-183 -107 0
-184 -108 0
-181 -97 0
-182 -98 0
-183 -99 0
-184 -100 0
-181 -77 0
-182 -78 0
-183 -79 0
-184 -80 0
-181 -65 0
-182 -66 0
-183 -67 0
-184 -68 0
-181 -53 0
-182 -54 0
-183 -55 0
-184 -56 0
-181 -49 0
-182 -50 0
-183 -51 0
-184 -52 0
-181 -41 0
-182 -42 0
-183 -43 0
-184 -44 0
-181 -37 0
-182 -38 0
-183 -39 0
-184 -40 0
-181 -33 0
-182 -34 0
-183 -35 0
-184 -36 0
-181 -29 0
-182 -30 0
-183 -31 0
-184 -32 0
-181 -25 0
-182 -26 0
-183 -27 0
-184 -28 0
-181 -17 0
-182 -18 0
-183 -19 0
-184 -20 0
-177 -165 0
-178 -166 0
-179 -167 0
-180 -168 0
-177 -161 0
-178 -162 0
-179 -163 0
-180 -164 0
-177 -133 0
-178 -134 0
-179 -135 0
-180 -136 0
-177 -129 0
-178 -130 0
-179 -131 0
-180 -132 0
-177 -125 0
-178 -126 0
-179 -127 0
-180 -128 0
-177 -121 0
-178 -122 0
-179 -123 0
-180 -124 0
-177 -105 0
-178 -106 0
-179 -107 0
-180 -108 0
-177 -101 0
-178 -102 0
-179 -103 0
-180 -104 0
-177 -93 0
-178 -94 0
-179 -95 0
-180 -96 0
-177 -81 0
-178 -82 0
-179 -83 0
-180 -84 0
-177 -77 0
-178 -78 0
-179 -79 0
-180 -80 0
-177 -73 0
-178 -74 0
-179 -75 0
-180 -76 0
-177 -69 0
-178 -70 0
-179 -71 0
-180 -72 0
-177 -65 0
-178 -66 0
-179 -67 0
-180 -68 0
-177 -61 0
-178 -62 0
-179 -63 0
-180 -64 0
-177 -53 0
-178 -54 0
-179 -55 0
-180 -56 0
-177 -45 0
-178 -46 0
-179 -47 0
-180 -48 0
-177 -41 0
-178 -42 0
-179 -43 0
-180 -44 0
-177 -33 0
-178 -34 0
-179 -35 0
-180 -36 0
-177 -29 0
-178 -30 0
-179 -31 0
-180 -32 0
-177 -25 0
-178 -26 0
-179 -27 0
-180 -28 0
-177 -1 0
-178 -2 0
-179 -3 0
-180 -4 0
-173 -169 0
-174 -170 0
-175 -171 0
-176 -172 0
-173 -165 0
-174 -166 0
-175 -167 0
-176 -168 0
-173 -157 0
-174 -158 0
-175 -159 0
-176 -160 0
-173 -141 0
-174 -142 0
-175 -143 0
-176 -144 0
-173 -125 0
-174 -126 0
-175 -127 0
-176 -128 0
-173 -121 0
-174 -122 0
-175 -123 0
-176 -124 0
-173 -117 0
-174 -118 0
-175 -119 0
-176 -120 0
-173 -113 0
-174 -114 0
-175 -115 0
-176 -116 0
-173 -109 0
-174 -110 0
-175 -111 0
-176 -112 0
-173 -97 0
-174 -98 0
-175 -99 0
-176 -100 0
-173 -85 0
-174 -86 0
-175 -87 0
-176 -88 0
-173 -73 0
-174 -74 0
-175 -75 0
-176 -76 0
-173 -69 0
-174 -70 0
-175 -71 0
-176 -72 0
-173 -57 0
-174 -58 0
-175 -59 0
-176 -60 0
-173 -49 0
-174 -50 0
-175 -51 0
-176 -52 0
-173 -41 0
-174 -42 0
-175 -43 0
-176 -44 0
-173 -37 0
-174 -38 0
-175 -39 0
-176 -40 0
-173 -1 0
-174 -2 0
-175 -3 0
-176 -4 0
-169 -161 0
-170 -162 0
-171 -163 0
-172 -164 0
-169 -157 0
-170 -158 0
-171 -159 0
-172 -160 0
-169 -137 0
-170 -138 0
-171 -139 0
-172 -140 0
-169 -109 0
-170 -110 0
-171 -111 0
-172 -112 0
-169 -101 0
-170 -102 0
-171 -103 0
-172 -104 0
-169 -97 0
-170 -98 0
-171 -99 0
-172 -100 0
-169 -89 0
-170 -90 0
-171 -91 0
-172 -92 0
-169 -85 0
-170 -86 0
-171 -87 0
-172 -88 0
-169 -81 0
-170 -82 0
-171 -83 0
-172 -84 0
-169 -73 0
-170 -74 0
-171 -75 0
-172 -76 0
-169 -61 0
-170 -62 0
-171 -63 0
-172 -64 0
-169 -57 0
-170 -58 0
-171 -59 0
-172 -60 0
-169 -49 0
-170 -50 0
-171 -51 0
-172 -52 0
-169 -41 0
-170 -42 0
-171 -43 0
-172 -44 0
-169 -21 0
-170 -22 0
-171 -23 0
-172 -24 0
-169 -17 0
-170 -18 0
-171 -19 0
-172 -20 0
-169 -13 0
-170 -14 0
-171 -15 0
-172 -16 0
-169 -9 0
-170 -10 0
-171 -11 0
-172 -12 0
-165 -157 0
-166 -158 0
-167 -159 0
-168 -160 0
-165 -141 0
-166 -142 0
-167 -143 0
-168 -144 0
-165 -137 0
-166 -138 0
-167 -139 0
-168 -140 0
-165 -125 0
-166 -126 0
-167 -127 0
-168 -128 0
-165 -117 0
-166 -118 0
-167 -119 0
-168 -120 0
-165 -113 0
-166 -114 0
-167 -115 0
-168 -116 0
-165 -105 0
-166 -106 0
-167 -107 0
-168 -108 0
-165 -101 0
-166 -102 0
-167 -103 0
-168 -104 0
-165 -97 0
-166 -98 0
-167 -99 0
-168 -100 0
-165 -93 0
-166 -94 0
-167 -95 0
-168 -96 0
-165 -89 0
-166 -90 0
-167 -91 0
-168 -92 0
-165 -77 0
-166 -78 0
-167 -79 0
-168 -80 0
-165 -73 0
-166 -74 0
-167 -75 0
-168 -76 0
-165 -69 0
-166 -70 0
-167 -71 0
-168 -72 0
-165 -41 0
-166 -42 0
-167 -43 0
-168 -44 0
-165 -37 0
-166 -38 0
-167 -39 0
-168 -40 0
-165 -1 0
-166 -2 0
-167 -3 0
-168 -4 0
-161 -153 0
-162 -154 0
-163 -155 0
-164 -156 0
-161 -149 0
-162 -150 0
-163 -151 0
-164 -152 0
-161 -129 0
-162 -130 0
-163 -131 0
-164 -132 0
-161 -125 0
-162 -126 0
-163 -127 0
-164 -128 0
-161 -121 0
-162 -122 0
-163 -123 0
-164 -124 0
-161 -105 0
-162 -106 0
-163 -107 0
-164 -108 0
-161 -97 0
-162 -98 0
-163 -99 0
-164 -100 0
-161 -93 0
-162 -94 0
-163 -95 0
-164 -96 0
-161 -69 0
-162 -70 0
-163 -71 0
-164 -72 0
-161 -65 0
-162 -66 0
-163 -67 0
-164 -68 0
-161 -53 0
-162 -54 0
-163 -55 0
-164 -56 0
-161 -49 0
-162 -50 0
-163 -51 0
-164 -52 0
-161 -45 0
-162 -46 0
-163 -47 0
-164 -48 0
-161 -33 0
-162 -34 0
-163 -35 0
-164 -36 0
-161 -21 0
-162 -22 0
-163 -23 0
-164 -24 0
-161 -9 0
-162 -10 0
-163 -11 0
-164 -12 0
-157 -145 0
-158 -146 0
-159 -147 0
-160 -148 0
-157 -137 0
-158 -138 0
-159 -139 0
-160 -140 0
-157 -133 0
-158 -134 0
-159 -135 0
-160 -136 0
-157 -117 0
-158 -118 0
-159 -119 0
-160 -120 0
-157 -109 0
-158 -110 0
-159 -111 0
-160 -112 0
-157 -101 0
-158 -102 0
-159 -103 0
-160 -104 0
-157 -89 0
-158 -90 0
-159 -91 0
-160 -92 0
-157 -77 0
-158 -78 0
-159 -79 0
-160 -80 0
-157 -73 0
-158 -74 0
-159 -75 0
-160 -76 0
-157 -57 0
-158 -58 0
-159 -59 0
-160 -60 0
-157 -49 0
-158 -50 0
-159 -51 0
-160 -52 0
-157 -37 0
-158 -38 0
-159 -39 0
-160 -40 0
-157 -29 0
-158 -30 0
-159 -31 0
-160 -32 0
-157 -25 0
-158 -26 0
-159 -27 0
-160 -28 0
-157 -17 0
-158 -18 0
-159 -19 0
-160 -20 0
-157 -13 0
-158 -14 0
-159 -15 0
-160 -16 0
-157 -1 0
-158 -2 0
-159 -3 0
-160 -4 0
-153 -149 0
-154 -150 0
-155 -151 0
-156 -152 0
-153 -145 0
-154 -146 0
-155 -147 0
-156 -148 0
-153 -129 0
-154 -130 0
-155 -131 0
-156 -132 0
-153 -125 0
-154 -126 0
-155 -127 0
-156 -128 0
-153 -101 0
-154 -102 0
-155 -103 0
-156 -104 0
-153 -93 0
-154 -94 0
-155 -95 0
-156 -96 0
-153 -85 0
-154 -86 0
-155 -87 0
-156 -88 0
-153 -81 0
-154 -82 0
-155 -83 0
-156 -84 0
-153 -69 0
-154 -70 0
-155 -71 0
-156 -72 0
-153 -65 0
-154 -66 0
-155 -67 0
-156 -68 0
-153 -61 0
-154 -62 0
-155 -63 0
-156 -64 0
-153 -53 0
-154 -54 0
-155 -55 0
-156 -56 0
-153 -45 0
-154 -46 0
-155 -47 0
-156 -48 0
-153 -33 0
-154 -34 0
-155 -35 0
-156 -36 0
-153 -21 0
-154 -22 0
-155 -23 0
-156 -24 0
-153 -17 0
-154 -18 0
-155 -19 0
-156 -20 0
-153 -9 0
-154 -10 0
-155 -11 0
-156 -12 0
-149 -133 0
-150 -134 0
-151 -135 0
-152 -136 0
-149 -129 0
-150 -130 0
-151 -131 0
-152 -132 0
-149 -125 0
-150 -126 0
-151 -127 0
-152 -128 0
-149 -121 0
-150 -122 0
-151 -123 0
-152 -124 0
-149 -117 0
-150 -118 0
-151 -119 0
-152 -120 0
-149 -105 0
-150 -106 0
-151 -107 0
-152 -108 0
-149 -101 0
-150 -102 0
-151 -103 0
-152 -104 0
-149 -97 0
-150 -98 0
-151 -99 0
-152 -100 0
-149 -77 0
-150 -78 0
-151 -79 0
-152 -80 0
-149 -69 0
-150 -70 0
-151 -71 0
-152 -72 0
-149 -65 0
-150 -66 0
-151 -67 0
-152 -68 0
-149 -61 0
-150 -62 0
-151 -63 0
-152 -64 0
-149 -49 0
-150 -50 0
-151 -51 0
-152 -52 0
-149 -45 0
-150 -46 0
-151 -47 0
-152 -48 0
-149 -33 0
-150 -34 0
-151 -35 0
-152 -36 0
-149 -21 0
-150 -22 0
-151 -23 0
-152 -24 0
-149 -17 0
-150 -18 0
-151 -19 0
-152 -20 0
-149 -13 0
-150 -14 0
-151 -15 0
-152 -16 0
-149 -9 0
-150 -10 0
-151 -11 0
-152 -12 0
-145 -137 0
-146 -138 0
-147 -139 0
-148 -140 0
-145 -133 0
-146 -134 0
-147 -135 0
-148 -136 0
-145 -121 0
-146 -122 0
-147 -123 0
-148 -124 0
-145 -117 0
-146 -118 0
-147 -119 0
-148 -120 0
-145 -113 0
-146 -114 0
-147 -115 0
-148 -116 0
-145 -105 0
-146 -106 0
-147 -107 0
-148 -108 0
-145 -77 0
-146 -78 0
-147 -79 0
-148 -80 0
-145 -53 0
-146 -54 0
-147 -55 0
-148 -56 0
-145 -29 0
-146 -30 0
-147 -31 0
-148 -32 0
-145 -25 0
-146 -26 0
-147 -27 0
-148 -28 0
-145 -21 0
-146 -22 0
-147 -23 0
-148 -24 0
-145 -9 0
-146 -10 0
-147 -11 0
-148 -12 0
-141 -133 0
-142 -134 0
-143 -135 0
-144 -136 0
-141 -125 0
-142 -126 0
-143 -127 0
-144 -128 0
-141 -121 0
-142 -122 0
-143 -123 0
-144 -124 0
-141 -105 0
-142 -106 0
-143 -107 0
-144 -108 0
-141 -101 0
-142 -102 0
-143 -103 0
-144 -104 0
-141 -93 0
-142 -94 0
-143 -95 0
-144 -96 0
-141 -89 0
-142 -90 0
-143 -91 0
-144 -92 0
-141 -81 0
-142 -82 0
-143 -83 0
-144 -84 0
-141 -77 0
-142 -78 0
-143 -79 0
-144 -80 0
-141 -73 0
-142 -74 0
-143 -75 0
-144 -76 0
-141 -69 0
-142 -70 0
-143 -71 0
-144 -72 0
-141 -65 0
-142 -66 0
-143 -67 0
-144 -68 0
-141 -61 0
-142 -62 0
-143 -63 0
-144 -64 0
-141 -53 0
-142 -54 0
-143 -55 0
-144 -56 0
-141 -45 0
-142 -46 0
-143 -47 0
-144 -48 0
-141 -41 0
-142 -42 0
-143 -43 0
-144 -44 0
-141 -37 0
-142 -38 0
-143 -39 0
-144 -40 0
-141 -33 0
-142 -34 0
-143 -35 0
-144 -36 0
-141 -29 0
-142 -30 0
-143 -31 0
-144 -32 0
-141 -25 0
-142 -26 0
-143 -27 0
-144 -28 0
-141 -1 0
-142 -2 0
-143 -3 0
-144 -4 0
-137 -121 0
-138 -122 0
-139 -123 0
-140 -124 0
-137 -117 0
-138 -118 0
-139 -119 0
-140 -120 0
-137 -113 0
-138 -114 0
-139 -115 0
-140 -116 0
-137 -109 0
-138 -110 0
-139 -111 0
-140 -112 0
-137 -97 0
-138 -98 0
-139 -99 0
-140 -100 0
-137 -89 0
-138 -90 0
-139 -91 0
-140 -92 0
-137 -81 0
-138 -82 0
-139 -83 0
-140 -84 0
-137 -49 0
-138 -50 0
-139 -51 0
-140 -52 0
-137 -41 0
-138 -42 0
-139 -43 0
-140 -44 0
-137 -37 0
-138 -38 0
-139 -39 0
-140 -40 0
-137 -25 0
-138 -26 0
-139 -27 0
-140 -28 0
-137 -21 0
-138 -22 0
-139 -23 0
-140 -24 0
-137 -9 0
-138 -10 0
-139 -11 0
-140 -12 0
-137 -5 0
-138 -6 0
-139 -7 0
-140 -8 0
-133 -121 0
-134 -122 0
-135 -123 0
-136 -124 0
-133 -117 0
-134 -118 0
-135 -119 0
-136 -120 0
-133 -113 0
-134 -114 0
-135 -115 0
-136 -116 0
-133 -105 0
-134 -106 0
-135 -107 0
-136 -108 0
-133 -97 0
-134 -98 0
-135 -99 0
-136 -100 0
-133 -69 0
-134 -70 0
-135 -71 0
-136 -72 0
-133 -65 0
-134 -66 0
-135 -67 0
-136 -68 0
-133 -49 0
-134 -50 0
-135 -51 0
-136 -52 0
-133 -41 0
-134 -42 0
-135 -43 0
-136 -44 0
-133 -37 0
-134 -38 0
-135 -39 0
-136 -40 0
-133 -33 0
-134 -34 0
-135 -35 0
-136 -36 0
-133 -25 0
-134 -26 0
-135 -27 0
-136 -28 0
-129 -125 0
-130 -126 0
-131 -127 0
-132 -128 0
-129 -109 0
-130 -110 0
-131 -111 0
-132 -112 0
-129 -105 0
-130 -106 0
-131 -107 0
-132 -108 0
-129 -101 0
-130 -102 0
-131 -103 0
-132 -104 0
-129 -93 0
-130 -94 0
-131 -95 0
-132 -96 0
-129 -85 0
-130 -86 0
-131 -87 0
-132 -88 0
-129 -81 0
-130 -82 0
-131 -83 0
-132 -84 0
-129 -65 0
-130 -66 0
-131 -67 0
-132 -68 0
-129 -61 0
-130 -62 0
-131 -63 0
-132 -64 0
-129 -57 0
-130 -58 0
-131 -59 0
-132 -60 0
-129 -53 0
-130 -54 0
-131 -55 0
-132 -56 0
-129 -45 0
-130 -46 0
-131 -47 0
-132 -48 0
-129 -33 0
-130 -34 0
-131 -35 0
-132 -36 0
-129 -21 0
-130 -22 0
-131 -23 0
-132 -24 0
-125 -109 0
-126 -110 0
-127 -111 0
-128 -112 0
-125 -105 0
-126 -106 0
-127 -107 0
-128 -108 0
-125 -101 0
-126 -102 0
-127 -103 0
-128 -104 0
-125 -97 0
-126 -98 0
-127 -99 0
-128 -100 0
-125 -85 0
-126 -86 0
-127 -87 0
-128 -88 0
-125 -77 0
-126 -78 0
-127 -79 0
-128 -80 0
-125 -73 0
-126 -74 0
-127 -75 0
-128 -76 0
-125 -69 0
-126 -70 0
-127 -71 0
-128 -72 0
-125 -65 0
-126 -66 0
-127 -67 0
-128 -68 0
-125 -61 0
-126 -62 0
-127 -63 0
-128 -64 0
-125 -57 0
-126 -58 0
-127 -59 0
-128 -60 0
-125 -49 0
-126 -50 0
-127 -51 0
-128 -52 0
-125 -41 0
-126 -42 0
-127 -43 0
-128 -44 0
-125 -37 0
-126 -38 0
-127 -39 0
-128 -40 0
-125 -13 0
-126 -14 0
-127 -15 0
-128 -16 0
-125 -1 0
-126 -2 0
-127 -3 0
-128 -4 0
-121 -117 0
-122 -118 0
-123 -119 0
-124 -120 0
-121 -77 0
-122 -78 0
-123 -79 0
-124 -80 0
-121 -73 0
-122 -74 0
-123 -75 0
-124 -76 0
-121 -69 0
-122 -70 0
-123 -71 0
-124 -72 0
-121 -49 0
-122 -50 0
-123 -51 0
-124 -52 0
-121 -37 0
-122 -38 0
-123 -39 0
-124 -40 0
-121 -33 0
-122 -34 0
-123 -35 0
-124 -36 0
-121 -29 0
-122 -30 0
-123 -31 0
-124 -32 0
-121 -25 0
-122 -26 0
-123 -27 0
-124 -28 0
-121 -17 0
-122 -18 0
-123 -19 0
-124 -20 0
-121 -13 0
-122 -14 0
-123 -15 0
-124 -16 0
-117 -113 0
-118 -114 0
-119 -115 0
-120 -116 0
-117 -105 0
-118 -106 0
-119 -107 0
-120 -108 0
-117 -97 0
-118 -98 0
-119 -99 0
-120 -100 0
-117 -77 0
-118 -78 0
-119 -79 0
-120 -80 0
-117 -73 0
-118 -74 0
-119 -75 0
-120 -76 0
-117 -65 0
-118 -66 0
-119 -67 0
-120 -68 0
-117 -49 0
-118 -50 0
-119 -51 0
-120 -52 0
-117 -41 0
-118 -42 0
-119 -43 0
-120 -44 0
-117 -37 0
-118 -38 0
-119 -39 0
-120 -40 0
-117 -33 0
-118 -34 0
-119 -35 0
-120 -36 0
-117 -29 0
-118 -30 0
-119 -31 0
-120 -32 0
-117 -25 0
-118 -26 0
-119 -27 0
-120 -28 0
-117 -17 0
-118 -18 0
-119 -19 0
-120 -20 0
-117 -5 0
-118 -6 0
-119 -7 0
-120 -8 0
-113 -89 0
-114 -90 0
-115 -91 0
-116 -92 0
-113 -81 0
-114 -82 0
-115 -83 0
-116 -84 0
-113 -77 0
-114 -78 0
-115 -79 0
-116 -80 0
-113 -73 0
-114 -74 0
-115 -75 0
-116 -76 0
-113 -49 0
-114 -50 0
-115 -51 0
-116 -52 0
-113 -37 0
-114 -38 0
-115 -39 0
-116 -40 0
-113 -29 0
-114 -30 0
-115 -31 0
-116 -32 0
-113 -25 0
-114 -26 0
-115 -27 0
-116 -28 0
-113 -5 0
-114 -6 0
-115 -7 0
-116 -8 0
-113 -1 0
-114 -2 0
-115 -3 0
-116 -4 0
-109 -101 0
-110 -102 0
-111 -103 0
-112 -104 0
-109 -97 0
-110 -98 0
-111 -99 0
-112 -100 0
-109 -89 0
-110 -90 0
-111 -91 0
-112 -92 0
-109 -81 0
-110 -82 0
-111 -83 0
-112 -84 0
-109 -73 0
-110 -74 0
-111 -75 0
-112 -76 0
-109 -69 0
-110 -70 0
-111 -71 0
-112 -72 0
-109 -61 0
-110 -62 0
-111 -63 0
-112 -64 0
-109 -49 0
-110 -50 0
-111 -51 0
-112 -52 0
-109 -45 0
-110 -46 0
-111 -47 0
-112 -48 0
-109 -41 0
-110 -42 0
-111 -43 0
-112 -44 0
-109 -37 0
-110 -38 0
-111 -39 0
-112 -40 0
-109 -21 0
-110 -22 0
-111 -23 0
-112 -24 0
-109 -17 0
-110 -18 0
-111 -19 0
-112 -20 0
-109 -13 0
-110 -14 0
-111 -15 0
-112 -16 0
-109 -5 0
-110 -6 0
-111 -7 0
-112 -8 0
-109 -1 0
-110 -2 0
-111 -3 0
-112 -4 0
-105 -101 0
-106 -102 0
-107 -103 0
-108 -104 0
-105 -93 0
-106 -94 0
-107 -95 0
-108 -96 0
-105 -81 0
-106 -82 0
-107 -83 0
-108 -84 0
-105 -77 0
-106 -78 0
-107 -79 0
-108 -80 0
-105 -73 0
-106 -74 0
-107 -75 0
-108 -76 0
-105 -69 0
-106 -70 0
-107 -71 0
-108 -72 0
-105 -61 0
-106 -62 0
-107 -63 0
-108 -64 0
-105 -53 0
-106 -54 0
-107 -55 0
-108 -56 0
-105 -45 0
-106 -46 0
-107 -47 0
-108 -48 0
-105 -33 0
-106 -34 0
-107 -35 0
-108 -36 0
-105 -29 0
-106 -30 0
-107 -31 0
-108 -32 0
-105 -25 0
-106 -26 0
-107 -27 0
-108 -28 0
-105 -1 0
-106 -2 0
-107 -3 0
-108 -4 0
-101 -97 0
-102 -98 0
-103 -99 0
-104 -100 0
-101 -93 0
-102 -94 0
-103 -95 0
-104 -96 0
-101 -89 0
-102 -90 0
-103 -91 0
-104 -92 0
-101 -85 0
-102 -86 0
-103 -87 0
-104 -88 0
-101 -73 0
-102 -74 0
-103 -75 0
-104 -76 0
-101 -69 0
-102 -70 0
-103 -71 0
-104 -72 0
-101 -65 0
-102 -66 0
-103 -67 0
-104 -68 0
-101 -57 0
-102 -58 0
-103 -59 0
-104 -60 0
-101 -49 0
-102 -50 0
-103 -51 0
-104 -52 0
-101 -45 0
-102 -46 0
-103 -47 0
-104 -48 0
-101 -41 0
-102 -42 0
-103 -43 0
-104 -44 0
-101 -37 0
-102 -38 0
-103 -39 0
-104 -40 0
-101 -33 0
-102 -34 0
-103 -35 0
-104 -36 0
-101 -5 0
-102 -6 0
-103 -7 0
-104 -8 0
-101 -1 0
-102 -2 0
-103 -3 0
-104 -4 0
-97 -85 0
-98 -86 0
-99 -87 0
-100 -88 0
-97 -77 0
-98 -78 0
-99 -79 0
-100 -80 0
-97 -73 0
-98 -74 0
-99 -75 0
-100 -76 0
-97 -57 0
-98 -58 0
-99 -59 0
-100 -60 0
-97 -49 0
-98 -50 0
-99 -51 0
-100 -52 0
-97 -37 0
-98 -38 0
-99 -39 0
-100 -40 0
-97 -33 0
-98 -34 0
-99 -35 0
-100 -36 0
-97 -29 0
-98 -30 0
-99 -31 0
-100 -32 0
-97 -25 0
-98 -26 0
-99 -27 0
-100 -28 0
-97 -17 0
-98 -18 0
-99 -19 0
-100 -20 0
-97 -13 0
-98 -14 0
-99 -15 0
-100 -16 0
-97 -1 0
-98 -2 0
-99 -3 0
-100 -4 0
-93 -89 0
-94 -90 0
-95 -91 0
-96 -92 0
-93 -85 0
-94 -86 0
-95 -87 0
-96 -88 0
-93 -81 0
-94 -82 0
-95 -83 0
-96 -84 0
-93 -77 0
-94 -78 0
-95 -79 0
-96 -80 0
-93 -61 0
-94 -62 0
-95 -63 0
-96 -64 0
-93 -53 0
-94 -54 0
-95 -55 0
-96 -56 0
-93 -29 0
-94 -30 0
-95 -31 0
-96 -32 0
-93 -25 0
-94 -26 0
-95 -27 0
-96 -28 0
-93 -9 0
-94 -10 0
-95 -11 0
-96 -12 0
-89 -85 0
-90 -86 0
-91 -87 0
-92 -88 0
-89 -81 0
-90 -82 0
-91 -83 0
-92 -84 0
-89 -57 0
-90 -58 0
-91 -59 0
-92 -60 0
-89 -53 0
-90 -54 0
-91 -55 0
-92 -56 0
-89 -45 0
-90 -46 0
-91 -47 0
-92 -48 0
-89 -41 0
-90 -42 0
-91 -43 0
-92 -44 0
-89 -37 0
-90 -38 0
-91 -39 0
-92 -40 0
-89 -5 0
-90 -6 0
-91 -7 0
-92 -8 0
-89 -1 0
-90 -2 0
-91 -3 0
-92 -4 0
-85 -81 0
-86 -82 0
-87 -83 0
-88 -84 0
-85 -73 0
-86 -74 0
-87 -75 0
-88 -76 0
-85 -69 0
-86 -70 0
-87 -71 0
-88 -72 0
-85 -65 0
-86 -66 0
-87 -67 0
-88 -68 0
-85 -61 0
-86 -62 0
-87 -63 0
-88 -64 0
-85 -49 0
-86 -50 0
-87 -51 0
-88 -52 0
-85 -45 0
-86 -46 0
-87 -47 0
-88 -48 0
-85 -41 0
-86 -42 0
-87 -43 0
-88 -44 0
-85 -33 0
-86 -34 0
-87 -35 0
-88 -36 0
-85 -17 0
-86 -18 0
-87 -19 0
-88 -20 0
-85 -13 0
-86 -14 0
-87 -15 0
-88 -16 0
-85 -5 0
-86 -6 0
-87 -7 0
-88 -8 0
-85 -1 0
-86 -2 0
-87 -3 0
-88 -4 0
-81 -45 0
-82 -46 0
-83 -47 0
-84 -48 0
-81 -37 0
-82 -38 0
-83 -39 0
-84 -40 0
-81 -5 0
-82 -6 0
-83 -7 0
-84 -8 0
-81 -1 0
-82 -2 0
-83 -3 0
-84 -4 0
-77 -69 0
-78 -70 0
-79 -71 0
-80 -72 0
-77 -65 0
-78 -66 0
-79 -67 0
-80 -68 0
-77 -53 0
-78 -54 0
-79 -55 0
-80 -56 0
-77 -49 0
-78 -50 0
-79 -51 0
-80 -52 0
-77 -33 0
-78 -34 0
-79 -35 0
-80 -36 0
-77 -25 0
-78 -26 0
-79 -27 0
-80 -28 0
-77 -1 0
-78 -2 0
-79 -3 0
-80 -4 0
-73 -69 0
-74 -70 0
-75 -71 0
-76 -72 0
-73 -61 0
-74 -62 0
-75 -63 0
-76 -64 0
-73 -57 0
-74 -58 0
-75 -59 0
-76 -60 0
-73 -49 0
-74 -50 0
-75 -51 0
-76 -52 0
-73 -45 0
-74 -46 0
-75 -47 0
-76 -48 0
-73 -41 0
-74 -42 0
-75 -43 0
-76 -44 0
-73 -17 0
-74 -18 0
-75 -19 0
-76 -20 0
-73 -13 0
-74 -14 0
-75 -15 0
-76 -16 0
-69 -65 0
-70 -66 0
-71 -67 0
-72 -68 0
-69 -61 0
-70 -62 0
-71 -63 0
-72 -64 0
-69 -57 0
-70 -58 0
-71 -59 0
-72 -60 0
-69 -45 0
-70 -46 0
-71 -47 0
-72 -48 0
-69 -41 0
-70 -42 0
-71 -43 0
-72 -44 0
-69 -37 0
-70 -38 0
-71 -39 0
-72 -40 0
-69 -33 0
-70 -34 0
-71 -35 0
-72 -36 0
-69 -25 0
-70 -26 0
-71 -27 0
-72 -28 0
-69 -1 0
-70 -2 0
-71 -3 0
-72 -4 0
-65 -61 0
-66 -62 0
-67 -63 0
-68 -64 0
-65 -45 0
-66 -46 0
-67 -47 0
-68 -48 0
-65 -33 0
-66 -34 0
-67 -35 0
-68 -36 0
-65 -29 0
-66 -30 0
-67 -31 0
-68 -32 0
-65 -25 0
-66 -26 0
-67 -27 0
-68 -28 0
-65 -21 0
-66 -22 0
-67 -23 0
-68 -24 0
-65 -17 0
-66 -18 0
-67 -19 0
-68 -20 0
-65 -1 0
-66 -2 0
-67 -3 0
-68 -4 0
-61 -57 0
-62 -58 0
-63 -59 0
-64 -60 0
-61 -53 0
-62 -54 0
-63 -55 0
-64 -56 0
-61 -45 0
-62 -46 0
-63 -47 0
-64 -48 0
-61 -33 0
-62 -34 0
-63 -35 0
-64 -36 0
-61 -9 0
-62 -10 0
-63 -11 0
-64 -12 0
-61 -1 0
-62 -2 0
-63 -3 0
-64 -4 0
-57 -49 0
-58 -50 0
-59 -51 0
-60 -52 0
-57 -45 0
-58 -46 0
-59 -47 0
-60 -48 0
-57 -41 0
-58 -42 0
-59 -43 0
-60 -44 0
-57 -37 0
-58 -38 0
-59 -39 0
-60 -40 0
-57 -21 0
-58 -22 0
-59 -23 0
-60 -24 0
-57 -17 0
-58 -18 0
-59 -19 0
-60 -20 0
-57 -13 0
-58 -14 0
-59 -15 0
-60 -16 0
-57 -5 0
-58 -6 0
-59 -7 0
-60 -8 0
-57 -1 0
-58 -2 0
-59 -3 0
-60 -4 0
-53 -45 0
-54 -46 0
-55 -47 0
-56 -48 0
-53 -29 0
-54 -30 0
-55 -31 0
-56 -32 0
-53 -25 0
-54 -26 0
-55 -27 0
-56 -28 0
-53 -21 0
-54 -22 0
-55 -23 0
-56 -24 0
-53 -9 0
-54 -10 0
-55 -11 0
-56 -12 0
-49 -41 0
-50 -42 0
-51 -43 0
-52 -44 0
-49 -37 0
-50 -38 0
-51 -39 0
-52 -40 0
-49 -33 0
-50 -34 0
-51 -35 0
-52 -36 0
-49 -29 0
-50 -30 0
-51 -31 0
-52 -32 0
-49 -21 0
-50 -22 0
-51 -23 0
-52 -24 0
-49 -17 0
-50 -18 0
-51 -19 0
-52 -20 0
-49 -13 0
-50 -14 0
-51 -15 0
-52 -16 0
-49 -1 0
-50 -2 0
-51 -3 0
-52 -4 0
-45 -9 0
-46 -10 0
-47 -11 0
-48 -12 0
-45 -1 0
-46 -2 0
-47 -3 0
-48 -4 0
-41 -37 0
-42 -38 0
-43 -39 0
-44 -40 0
-41 -17 0
-42 -18 0
-43 -19 0
-44 -20 0
-41 -13 0
-42 -14 0
-43 -15 0
-44 -16 0
-41 -1 0
-42 -2 0
-43 -3 0
-44 -4 0
-37 -29 0
-38 -30 0
-39 -31 0
-40 -32 0
-37 -17 0
-38 -18 0
-39 -19 0
-40 -20 0
-37 -13 0
-38 -14 0
-39 -15 0
-40 -16 0
-37 -5 0
-38 -6 0
-39 -7 0
-40 -8 0
-33 -29 0
-34 -30 0
-35 -31 0
-36 -32 0
-33 -25 0
-34 -26 0
-35 -27 0
-36 -28 0
-33 -21 0
-34 -22 0
-35 -23 0
-36 -24 0
-33 -17 0
-34 -18 0
-35 -19 0
-36 -20 0
-33 -9 0
-34 -10 0
-35 -11 0
-36 -12 0
-33 -1 0
-34 -2 0
-35 -3 0
-36 -4 0
-29 -25 0
-30 -26 0
-31 -27 0
-32 -28 0
-29 -21 0
-30 -22 0
-31 -23 0
-32 -24 0
-29 -9 0
-30 -10 0
-31 -11 0
-32 -12 0
-29 -5 0
-30 -6 0
-31 -7 0
-32 -8 0
-25 -9 0
-26 -10 0
-27 -11 0
-28 -12 0
-21 -17 0
-22 -18 0
-23 -19 0
-24 -20 0
-21 -13 0
-22 -14 0
-23 -15 0
-24 -16 0
-21 -9 0
-22 -10 0
-23 -11 0
-24 -12 0
-21 -5 0
-22 -6 0
-23 -7 0
-24 -8 0
-17 -9 0
-18 -10 0
-19 -11 0
-20 -12 0
-17 -5 0
-18 -6 0
-19 -7 0
-20 -8 0
-13 -9 0
-14 -10 0
-15 -11 0
-16 -12 0
-13 -5 0
-14 -6 0
-15 -7 0
-16 -8 0
-9 -5 0
-10 -6 0
-11 -7 0
-12 -8 0
197 198 199 200 0
-197 -198 0
-197 -199 0
-197 -200 0
-198 -199 0
-198 -200 0
-199 -200 0
193 194 195 196 0
-193 -194 0
-193 -195 0
-193 -196 0
-194 -195 0
-194 -196 0
-195 -196 0
189 190 191 192 0
-189 -190 0
-189 -191 0
-189 -192 0
-190 -191 0
-190 -192 0
-191 -192 0
185 186 187 188 0
-185 -186 0
-185 -187 0
-185 -188 0
-186 -187 0
-186 -188 0
-187 -188 0
181 182 183 184 0
-181 -182 0
-181 -183 0
-181 -184 0
-182 -183 0
-182 -184 0
-183 -184 0
177 178 179 180 0
-177 -178 0
-177 -179 0
-177 -180 0
-178 -179 0
-178 -180 0
-179 -180 0
173 174 175 176 0
-173 -174 0
-173 -175 0
-173 -176 0
-174 -175 0
-174 -176 0
-175 -176 0
169 170 171 172 0
-169 -170 0
-169 -171 0
-169 -172 0
-170 -171 0
-170 -172 0
-171 -172 0
165 166 167 168 0
-165 -166 0
-165 -167 0
-165 -168 0
-166 -167 0
-166 -168 0
-167 -168 0
161 162 163 164 0
-161 -162 0
-161 -163 0
-161 -164 0
-162 -163 0
-162 -164 0
-163 -164 0
157 158 159 160 0
-157 -158 0
-157 -159 0
-157 -160 0
-158 -159 0
-158 -160 0
-159 -160 0
153 154 155 156 0
-153 -154 0
-153 -155 0
-153 -156 0
-154 -155 0
-154 -156 0
-155 -156 0
149 150 151 152 0
-149 -150 0
-149 -151 0
-149 -152 0
-150 -151 0
-150 -152 0
-151 -152 0
145 146 147 148 0
-145 -146 0
-145 -147 0
-145 -148 0
-146 -147 0
-146 -148 0
-147 -148 0
141 142 143 144 0
-141 -142 0
-141 -143 0
-141 -144 0
-142 -143 0
-142 -144 0
-143 -144 0
137 138 139 140 0
-137 -138 0
-137 -139 0
-137 -140 0
-138 -139 0
-138 -140 0
-139 -140 0
133 134 135 136 0
-133 -134 0
-133 -135 0
-133 -136 0
-134 -135 0
-134 -136 0
-135 -136 0
129 130 131 132 0
-129 -130 0
-129 -131 0
-129 -132 0
-130 -131 0
-130 -132 0
-131 -132 0
125 126 127 128 0
-125 -126 0
-125 -127 0
-125 -128 0
-126 -127 0
-126 -128 0
-127 -128 0
121 122 123 124 0
-121 -122 0
-121 -123 0
-121 -124 0
-122 -123 0
-122 -124 0
-123 -124 0
117 118 119 120 0
-117 -118 0
-117 -119 0
-117 -120 0
-118 -119 0
-118 -120 0
-119 -120 0
113 114 115 116 0
-113 -114 0
-113 -115 0
-113 -116 0
-114 -115 0
-114 -116 0
-115 -116 0
109 110 111 112 0
-109 -110 0
-109 -111 0
-109 -112 0
-110 -111 0
-110 -112 0
-111 -112 0
105 106 107 108 0
-105 -106 0
-105 -107 0
-105 -108 0
-106 -107 0
-106 -108 0
-107 -108 0
101 102 103 104 0
-101 -102 0
-101 -103 0
-101 -104 0
-102 -103 0
-102 -104 0
-103 -104 0
97 98 99 100 0
-97 -98 0
-97 -99 0
-97 -100 0
-98 -99 0
-98 -100 0
-99 -100 0
93 94 95 96 0
-93 -94 0
-93 -95 0
-93 -96 0
-94 -95 0
-94 -96 0
-95 -96 0
89 90 91 92 0
-89 -90 0
-89 -91 0
-89 -92 0
-90 -91 0
-90 -92 0
-91 -92 0
85 86 87 88 0
-85 -86 0
-85 -87 0
-85 -88 0
-86 -87 0
-86 -88 0
-87 -88 0
81 82 83 84 0
-81 -82 0
-81 -83 0
-81 -84 0
-82 -83 0
-82 -84 0
-83 -84 0
77 78 79 80 0
-77 -78 0
-77 -79 0
-77 -80 0
-78 -79 0
-78 -80 0
-79 -80 0
73 74 75 76 0
-73 -74 0
-73 -75 0
-73 -76 0
-74 -75 0
-74 -76 0
-75 -76 0
69 70 71 72 0
-69 -70 0
-69 -71 0
-69 -72 0
-70 -71 0
-70 -72 0
-71 -72 0
65 66 67 68 0
-65 -66 0
-65 -67 0
-65 -68 0
-66 -67 0
-66 -68 0
-67 -68 0
61 62 63 64 0
-61 -62 0
-61 -63 0
-61 -64 0
-62 -63 0
-62 -64 0
-63 -64 0
57 58 59 60 0
-57 -58 0
-57 -59 0
-57 -60 0
-58 -59 0
-58 -60 0
-59 -60 0
53 54 55 56 0
-53 -54 0
-53 -55 0
-53 -56 0
-54 -55 0
-54 -56 0
-55 -56 0
49 50 51 52 0
-49 -50 0
-49 -51 0
-49 -52 0
-50 -51 0
-50 -52 0
-51 -52 0
45 46 47 48 0
-45 -46 0
-45 -47 0
-45 -48 0
-46 -47 0
-46 -48 0
-47 -48 0
41 42 43 44 0
-41 -42 0
-41 -43 0
-41 -44 0
-42 -43 0
-42 -44 0
-43 -44 0
37 38 39 40 0
-37 -38 0
-37 -39 0
-37 -40 0
-38 -39 0
-38 -40 0
-39 -40 0
33 34 35 36 0
-33 -34 0
-33 -35 0
-33 -36 0
-34 -35 0
-34 -36 0
-35 -36 0
29 30 31 32 0
-29 -30 0
-29 -31 0
-29 -32 0
-30 -31 0
-30 -32 0
-31 -32 0
25 26 27 28 0
-25 -26 0
-25 -27 0
-25 -28 0
-26 -27 0
-26 -28 0
-27 -28 0
21 22 23 24 0
-21 -22 0
-21 -23 0
-21 -24 0
-22 -23 0
-22 -24 0
-23 -24 0
17 18 19 20 0
-17 -18 0
-17 -19 0
-17 -20 0
-18 -19 0
-18 -20 0
-19 -20 0
13 14 15 16 0
-13 -14 0
-13 -15 0
-13 -16 0
-14 -15 0
-14 -16 0
-15 -16 0
9 10 11 12 0
-9 -10 0
-9 -11 0
-9 -12 0
-10 -11 0
-10 -12 0
-11 -12 0
5 6 7 8 0
-5 -6 0
-5 -7 0
-5 -8 0
-6 -7 0
-6 -8 0
-7 -8 0
1 2 3 4 0
-1 -2 0
-1 -3 0
-1 -4 0
-2 -3 0
-2 -4 0
-3 -4 0
